(set-info :source |printed by MathSAT|)
(declare-fun x7 () Int)
(declare-fun call_First3.First () Int)
(declare-fun param_e4 () Bool)
(declare-fun call_swimingpool.ite13 () Int)
(declare-fun call_swimingpool.ite11 () Int)
(declare-fun call_swimingpool.ite23 () Int)
(declare-fun param_init_p1 () Int)
(declare-fun call_First.First () Int)
(declare-fun call_swimingpool.ite12 () Int)
(declare-fun call_excludes6.excludes () Bool)
(declare-fun call_swimingpool.p2 () Int)
(declare-fun x5 () Int)
(declare-fun call_swimingpool.x1 () Int)
(declare-fun call_swimingpool.ite9 () Int)
(declare-fun call_First.flby () Int)
(declare-fun call_swimingpool.ite22 () Int)
(declare-fun param_e3 () Bool)
(declare-fun call_Sofar.flby () Bool)
(declare-fun call_swimingpool.ite7 () Int)
(declare-fun call_swimingpool.ite21 () Int)
(declare-fun call_swimingpool.flby5 () Bool)
(declare-fun call_swimingpool.ite28 () Int)
(declare-fun call_swimingpool.flby4 () Bool)
(declare-fun call_swimingpool.flby14 () Int)
(declare-fun call_swimingpool.ite5 () Int)
(declare-fun call_swimingpool.flby () Bool)
(declare-fun call_swimingpool.ite29 () Int)
(declare-fun p2 () Int)
(declare-fun call_swimingpool.ite20 () Int)
(declare-fun call_First2.First () Int)
(declare-fun call_swimingpool.flby8 () Int)
(declare-fun call_swimingpool.x7 () Int)
(declare-fun call_swimingpool.ite19 () Int)
(declare-fun call_swimingpool.ite14 () Int)
(declare-fun x4 () Int)
(declare-fun call_swimingpool.ite17 () Int)
(declare-fun x1 () Int)
(declare-fun call_First4.flby () Int)
(declare-fun call_swimingpool.ite26 () Int)
(declare-fun p1 () Int)
(declare-fun call_First4.First () Int)
(declare-fun call_swimingpool.flby13 () Int)
(declare-fun call_swimingpool.ite30 () Int)
(declare-fun x2 () Int)
(declare-fun call_swimingpool.ite10 () Int)
(declare-fun _OK_ () Bool)
(declare-fun call_swimingpool.flby10 () Int)
(declare-fun call_swimingpool.x5 () Int)
(declare-fun call_swimingpool.flby7 () Int)
(declare-fun call_First3.flby () Int)
(declare-fun call_swimingpool.g6 () Bool)
(declare-fun x6 () Int)
(declare-fun call_swimingpool.x3 () Int)
(declare-fun param_e6 () Bool)
(declare-fun call_swimingpool.ite6 () Int)
(declare-fun call_First2.flby () Int)
(declare-fun call_swimingpool.g5 () Bool)
(declare-fun call_swimingpool.ite16 () Int)
(declare-fun call_swimingpool.ite2 () Int)
(declare-fun call_swimingpool.flby6 () Bool)
(declare-fun call_swimingpool.flby2 () Bool)
(declare-fun call_swimingpool.ite3 () Int)
(declare-fun call_swimingpool.flby9 () Int)
(declare-fun call_swimingpool.ite27 () Int)
(declare-fun call_swimingpool.g4 () Bool)
(declare-fun param_e1 () Bool)
(declare-fun env () Bool)
(declare-fun call_Sofar.Sofar () Bool)
(declare-fun call_swimingpool.ite () Int)
(declare-fun call_swimingpool.g3 () Bool)
(declare-fun call_swimingpool.flby3 () Bool)
(declare-fun call_swimingpool.ite32 () Int)
(declare-fun call_swimingpool.x4 () Int)
(declare-fun param_e2 () Bool)
(declare-fun call_swimingpool.g2 () Bool)
(declare-fun call_swimingpool.flby12 () Int)
(declare-fun x3 () Int)
(declare-fun call_swimingpool.ite25 () Int)
(declare-fun call_swimingpool.g1 () Bool)
(declare-fun call_swimingpool.ite24 () Int)
(declare-fun call_swimingpool.ite4 () Int)
(declare-fun call_swimingpool.ite15 () Int)
(declare-fun call_swimingpool.flby15 () Int)
(declare-fun call_swimingpool.p1 () Int)
(declare-fun call_swimingpool.x2 () Int)
(declare-fun call_swimingpool.flby11 () Int)
(declare-fun param_e5 () Bool)
(declare-fun call_swimingpool.ite8 () Int)
(declare-fun param_init_p2 () Int)
(declare-fun call_swimingpool.ite18 () Int)
(declare-fun call_swimingpool.ite31 () Int)
(declare-fun call_swimingpool.x6 () Int)
(define-fun .def_1188 () Bool (= call_First4.flby call_First4.First))
(define-fun .def_1186 () Bool (= call_First3.flby call_First3.First))
(define-fun .def_1184 () Bool (= call_First2.flby call_First2.First))
(define-fun .def_1182 () Bool (= call_First.flby call_First.First))
(define-fun .def_1180 () Bool (= call_Sofar.flby call_Sofar.Sofar))
(define-fun .def_1011 () Bool (not param_e1))
(define-fun .def_863 () Bool (not param_e2))
(define-fun .def_1147 () Bool (and .def_863 .def_1011))
(define-fun .def_857 () Bool (not param_e3))
(define-fun .def_1148 () Bool (and .def_857 .def_1147))
(define-fun .def_870 () Bool (not param_e4))
(define-fun .def_1149 () Bool (and .def_870 .def_1148))
(define-fun .def_877 () Bool (not param_e5))
(define-fun .def_1150 () Bool (and .def_877 .def_1149))
(define-fun .def_889 () Bool (not param_e6))
(define-fun .def_1171 () Bool (and .def_889 .def_1150))
(define-fun .def_1166 () Bool (and .def_863 param_e1))
(define-fun .def_1167 () Bool (and .def_857 .def_1166))
(define-fun .def_1168 () Bool (and .def_870 .def_1167))
(define-fun .def_1169 () Bool (and .def_877 .def_1168))
(define-fun .def_1170 () Bool (and .def_889 .def_1169))
(define-fun .def_1172 () Bool (or .def_1170 .def_1171))
(define-fun .def_1161 () Bool (and param_e2 .def_1011))
(define-fun .def_1162 () Bool (and .def_857 .def_1161))
(define-fun .def_1163 () Bool (and .def_870 .def_1162))
(define-fun .def_1164 () Bool (and .def_877 .def_1163))
(define-fun .def_1165 () Bool (and .def_889 .def_1164))
(define-fun .def_1173 () Bool (or .def_1165 .def_1172))
(define-fun .def_1157 () Bool (and param_e3 .def_1147))
(define-fun .def_1158 () Bool (and .def_870 .def_1157))
(define-fun .def_1159 () Bool (and .def_877 .def_1158))
(define-fun .def_1160 () Bool (and .def_889 .def_1159))
(define-fun .def_1174 () Bool (or .def_1160 .def_1173))
(define-fun .def_1154 () Bool (and param_e4 .def_1148))
(define-fun .def_1155 () Bool (and .def_877 .def_1154))
(define-fun .def_1156 () Bool (and .def_889 .def_1155))
(define-fun .def_1175 () Bool (or .def_1156 .def_1174))
(define-fun .def_1152 () Bool (and param_e5 .def_1149))
(define-fun .def_1153 () Bool (and .def_889 .def_1152))
(define-fun .def_1176 () Bool (or .def_1153 .def_1175))
(define-fun .def_1151 () Bool (and param_e6 .def_1150))
(define-fun .def_1177 () Bool (or .def_1151 .def_1176))
(define-fun .def_1178 () Bool (= call_excludes6.excludes .def_1177))
(define-fun .def_1145 () Bool (= call_swimingpool.flby6 call_swimingpool.g6))
(define-fun .def_1142 () Bool (= call_swimingpool.flby5 call_swimingpool.g5))
(define-fun .def_1139 () Bool (= call_swimingpool.flby4 call_swimingpool.g4))
(define-fun .def_1136 () Bool (= call_swimingpool.flby3 call_swimingpool.g3))
(define-fun .def_1133 () Bool (= call_swimingpool.flby2 call_swimingpool.g2))
(define-fun .def_1130 () Bool (= call_swimingpool.flby call_swimingpool.g1))
(define-fun .def_1127 () Bool (= call_swimingpool.p2 call_swimingpool.flby15))
(define-fun .def_1125 () Bool (= call_swimingpool.p1 call_swimingpool.flby14))
(define-fun .def_1123 () Bool (= call_swimingpool.flby13 call_swimingpool.x7))
(define-fun .def_1121 () Bool (= call_swimingpool.flby12 call_swimingpool.x6))
(define-fun .def_1119 () Bool (= call_swimingpool.flby11 call_swimingpool.x5))
(define-fun .def_1117 () Bool (= call_swimingpool.flby10 call_swimingpool.x4))
(define-fun .def_1115 () Bool (= call_swimingpool.flby9 call_swimingpool.x3))
(define-fun .def_1113 () Bool (= call_swimingpool.flby8 call_swimingpool.x2))
(define-fun .def_1111 () Bool (= call_swimingpool.flby7 call_swimingpool.x1))
(define-fun .def_1109 () Bool (= x2 call_swimingpool.x2))
(define-fun .def_1106 () Bool (= x1 call_swimingpool.x1))
(define-fun .def_1093 () Int (+ x1 x2))
(define-fun .def_1087 () Int (* (- 1) p2))
(define-fun .def_1094 () Int (+ .def_1087 .def_1093))
(define-fun .def_1085 () Int (* (- 1) p1))
(define-fun .def_1095 () Int (+ .def_1085 .def_1094))
(define-fun .def_1096 () Int (+ x7 .def_1095))
(define-fun .def_1097 () Int (+ x6 .def_1096))
(define-fun .def_1098 () Int (+ x5 .def_1097))
(define-fun .def_1099 () Int (+ x4 .def_1098))
(define-fun .def_1100 () Int (+ x3 .def_1099))
(define-fun .def_1101 () Bool (<= .def_1100 0))
(define-fun .def_1080 () Bool (not env))
(define-fun .def_1102 () Bool (or .def_1080 .def_1101))
(define-fun .def_1103 () Bool (= _OK_ .def_1102))
(define-fun .def_1075 () Bool (= call_swimingpool.ite20 call_swimingpool.ite17))
(define-fun .def_1076 () Bool (or .def_877 .def_1075))
(define-fun .def_1072 () Bool (= call_swimingpool.ite19 call_swimingpool.ite20))
(define-fun .def_1073 () Bool (or param_e5 .def_1072))
(define-fun .def_1077 () Bool (and .def_1073 .def_1076))
(define-fun .def_1067 () Bool (= call_swimingpool.ite25 call_swimingpool.ite26))
(define-fun .def_1068 () Bool (or param_e4 .def_1067))
(define-fun .def_1064 () Bool (= call_swimingpool.ite26 call_swimingpool.ite23))
(define-fun .def_1065 () Bool (or .def_870 .def_1064))
(define-fun .def_1060 () Bool (= call_swimingpool.ite16 call_swimingpool.ite13))
(define-fun .def_1061 () Bool (or .def_870 .def_1060))
(define-fun .def_1057 () Bool (= call_swimingpool.ite15 call_swimingpool.ite16))
(define-fun .def_1058 () Bool (or param_e4 .def_1057))
(define-fun .def_1062 () Bool (and .def_1058 .def_1061))
(define-fun .def_1066 () Bool (and .def_1062 .def_1065))
(define-fun .def_1069 () Bool (and .def_1066 .def_1068))
(define-fun .def_1052 () Bool (= call_swimingpool.ite27 call_swimingpool.ite26))
(define-fun .def_1053 () Bool (or param_e3 .def_1052))
(define-fun .def_1048 () Bool (= call_swimingpool.ite27 call_swimingpool.ite22))
(define-fun .def_1049 () Bool (or .def_857 .def_1048))
(define-fun .def_1044 () Bool (= call_swimingpool.ite12 call_swimingpool.ite9))
(define-fun .def_1045 () Bool (or .def_857 .def_1044))
(define-fun .def_1041 () Bool (= call_swimingpool.ite11 call_swimingpool.ite12))
(define-fun .def_1042 () Bool (or param_e3 .def_1041))
(define-fun .def_1046 () Bool (and .def_1042 .def_1045))
(define-fun .def_1050 () Bool (and .def_1046 .def_1049))
(define-fun .def_1054 () Bool (and .def_1050 .def_1053))
(define-fun .def_1036 () Bool (= call_swimingpool.ite31 call_swimingpool.ite32))
(define-fun .def_1037 () Bool (or param_e2 .def_1036))
(define-fun .def_1033 () Bool (= call_swimingpool.ite29 call_swimingpool.ite32))
(define-fun .def_1034 () Bool (or .def_863 .def_1033))
(define-fun .def_1028 () Bool (= call_swimingpool.ite8 call_swimingpool.ite5))
(define-fun .def_1029 () Bool (or .def_863 .def_1028))
(define-fun .def_1025 () Bool (= call_swimingpool.ite7 call_swimingpool.ite8))
(define-fun .def_1026 () Bool (or param_e2 .def_1025))
(define-fun .def_1030 () Bool (and .def_1026 .def_1029))
(define-fun .def_1035 () Bool (and .def_1030 .def_1034))
(define-fun .def_1038 () Bool (and .def_1035 .def_1037))
(define-fun .def_1020 () Bool (= call_swimingpool.ite28 call_swimingpool.ite27))
(define-fun .def_1021 () Bool (or param_e1 .def_1020))
(define-fun .def_1016 () Bool (= call_swimingpool.ite21 call_swimingpool.ite28))
(define-fun .def_1017 () Bool (or .def_1011 .def_1016))
(define-fun .def_1010 () Bool (= call_swimingpool.ite4 call_swimingpool.ite))
(define-fun .def_1012 () Bool (or .def_1010 .def_1011))
(define-fun .def_1006 () Bool (= call_swimingpool.ite3 call_swimingpool.ite4))
(define-fun .def_1008 () Bool (or .def_1006 param_e1))
(define-fun .def_1013 () Bool (and .def_1008 .def_1012))
(define-fun .def_1018 () Bool (and .def_1013 .def_1017))
(define-fun .def_1022 () Bool (and .def_1018 .def_1021))
(define-fun .def_999 () Bool (<= 1000 call_First4.First))
(define-fun .def_1000 () Bool (not .def_999))
(define-fun .def_995 () Bool (<= 1000 call_First3.First))
(define-fun .def_996 () Bool (not .def_995))
(define-fun .def_992 () Bool (<= 0 call_First2.First))
(define-fun .def_988 () Bool (<= 0 call_First.First))
(define-fun .def_990 () Bool (and .def_988 call_Sofar.Sofar))
(define-fun .def_993 () Bool (and .def_990 .def_992))
(define-fun .def_997 () Bool (and .def_993 .def_996))
(define-fun .def_1001 () Bool (and .def_997 .def_1000))
(define-fun .def_1003 () Bool (= .def_1001 env))
(define-fun .def_985 () Bool (= call_swimingpool.p2 p2))
(define-fun .def_982 () Bool (= call_swimingpool.p1 p1))
(define-fun .def_979 () Bool (= x7 call_swimingpool.x7))
(define-fun .def_975 () Bool (= x6 call_swimingpool.x6))
(define-fun .def_971 () Bool (= x5 call_swimingpool.x5))
(define-fun .def_967 () Bool (= x4 call_swimingpool.x4))
(define-fun .def_964 () Bool (= x3 call_swimingpool.x3))
(define-fun .def_968 () Bool (and .def_964 .def_967))
(define-fun .def_972 () Bool (and .def_968 .def_971))
(define-fun .def_976 () Bool (and .def_972 .def_975))
(define-fun .def_980 () Bool (and .def_976 .def_979))
(define-fun .def_983 () Bool (and .def_980 .def_982))
(define-fun .def_986 () Bool (and .def_983 .def_985))
(define-fun .def_1004 () Bool (and .def_986 .def_1003))
(define-fun .def_1023 () Bool (and .def_1004 .def_1022))
(define-fun .def_1039 () Bool (and .def_1023 .def_1038))
(define-fun .def_1055 () Bool (and .def_1039 .def_1054))
(define-fun .def_1070 () Bool (and .def_1055 .def_1069))
(define-fun .def_1078 () Bool (and .def_1070 .def_1077))
(define-fun .def_1104 () Bool (and .def_1078 .def_1103))
(define-fun .def_1107 () Bool (and .def_1104 .def_1106))
(define-fun .def_1110 () Bool (and .def_1107 .def_1109))
(define-fun .def_1112 () Bool (and .def_1110 .def_1111))
(define-fun .def_1114 () Bool (and .def_1112 .def_1113))
(define-fun .def_1116 () Bool (and .def_1114 .def_1115))
(define-fun .def_1118 () Bool (and .def_1116 .def_1117))
(define-fun .def_1120 () Bool (and .def_1118 .def_1119))
(define-fun .def_1122 () Bool (and .def_1120 .def_1121))
(define-fun .def_1124 () Bool (and .def_1122 .def_1123))
(define-fun .def_1126 () Bool (and .def_1124 .def_1125))
(define-fun .def_1128 () Bool (and .def_1126 .def_1127))
(define-fun .def_1131 () Bool (and .def_1128 .def_1130))
(define-fun .def_1134 () Bool (and .def_1131 .def_1133))
(define-fun .def_1137 () Bool (and .def_1134 .def_1136))
(define-fun .def_1140 () Bool (and .def_1137 .def_1139))
(define-fun .def_1143 () Bool (and .def_1140 .def_1142))
(define-fun .def_1146 () Bool (and .def_1143 .def_1145))
(define-fun .def_1179 () Bool (and .def_1146 .def_1178))
(define-fun .def_1181 () Bool (and .def_1179 .def_1180))
(define-fun .def_1183 () Bool (and .def_1181 .def_1182))
(define-fun .def_1185 () Bool (and .def_1183 .def_1184))
(define-fun .def_1187 () Bool (and .def_1185 .def_1186))
(define-fun .def_1189 () Bool (and .def_1187 .def_1188))
(define-fun .def_960 () Bool (= param_init_p2 call_First4.flby))
(define-fun .def_957 () Bool (= param_init_p1 call_First3.flby))
(define-fun .def_954 () Bool (= param_init_p2 call_First2.flby))
(define-fun .def_951 () Bool (= param_init_p1 call_First.flby))
(define-fun .def_948 () Bool (= call_excludes6.excludes call_Sofar.flby))
(define-fun .def_944 () Bool (= param_init_p2 call_swimingpool.flby15))
(define-fun .def_940 () Bool (= param_init_p1 call_swimingpool.flby14))
(define-fun .def_936 () Bool (= call_swimingpool.flby13 call_swimingpool.p2))
(define-fun .def_932 () Bool (= call_swimingpool.flby12 call_swimingpool.p1))
(define-fun .def_928 () Bool (= call_swimingpool.flby11 0))
(define-fun .def_925 () Bool (= call_swimingpool.flby10 0))
(define-fun .def_922 () Bool (= call_swimingpool.flby9 0))
(define-fun .def_919 () Bool (= call_swimingpool.flby8 0))
(define-fun .def_916 () Bool (= call_swimingpool.flby7 0))
(define-fun .def_913 () Bool (not call_swimingpool.flby6))
(define-fun .def_910 () Bool (not call_swimingpool.flby5))
(define-fun .def_907 () Bool (not call_swimingpool.flby4))
(define-fun .def_904 () Bool (not call_swimingpool.flby3))
(define-fun .def_901 () Bool (not call_swimingpool.flby2))
(define-fun .def_898 () Bool (not call_swimingpool.flby))
(define-fun .def_893 () Bool (= call_swimingpool.ite18 call_swimingpool.ite19))
(define-fun .def_894 () Bool (or .def_889 .def_893))
(define-fun .def_887 () Bool (= call_swimingpool.ite24 call_swimingpool.ite25))
(define-fun .def_890 () Bool (or .def_887 .def_889))
(define-fun .def_895 () Bool (and .def_890 .def_894))
(define-fun .def_881 () Bool (= call_swimingpool.ite14 call_swimingpool.ite15))
(define-fun .def_882 () Bool (or .def_877 .def_881))
(define-fun .def_875 () Bool (= call_swimingpool.ite30 call_swimingpool.ite31))
(define-fun .def_878 () Bool (or .def_875 .def_877))
(define-fun .def_883 () Bool (and .def_878 .def_882))
(define-fun .def_868 () Bool (= call_swimingpool.ite10 call_swimingpool.ite11))
(define-fun .def_871 () Bool (or .def_868 .def_870))
(define-fun .def_861 () Bool (= call_swimingpool.ite2 call_swimingpool.ite3))
(define-fun .def_864 () Bool (or .def_861 .def_863))
(define-fun .def_855 () Bool (= call_swimingpool.ite6 call_swimingpool.ite7))
(define-fun .def_858 () Bool (or .def_855 .def_857))
(define-fun .def_865 () Bool (and .def_858 .def_864))
(define-fun .def_872 () Bool (and .def_865 .def_871))
(define-fun .def_884 () Bool (and .def_872 .def_883))
(define-fun .def_896 () Bool (and .def_884 .def_895))
(define-fun .def_899 () Bool (and .def_896 .def_898))
(define-fun .def_902 () Bool (and .def_899 .def_901))
(define-fun .def_905 () Bool (and .def_902 .def_904))
(define-fun .def_908 () Bool (and .def_905 .def_907))
(define-fun .def_911 () Bool (and .def_908 .def_910))
(define-fun .def_914 () Bool (and .def_911 .def_913))
(define-fun .def_917 () Bool (and .def_914 .def_916))
(define-fun .def_920 () Bool (and .def_917 .def_919))
(define-fun .def_923 () Bool (and .def_920 .def_922))
(define-fun .def_926 () Bool (and .def_923 .def_925))
(define-fun .def_929 () Bool (and .def_926 .def_928))
(define-fun .def_933 () Bool (and .def_929 .def_932))
(define-fun .def_937 () Bool (and .def_933 .def_936))
(define-fun .def_941 () Bool (and .def_937 .def_940))
(define-fun .def_945 () Bool (and .def_941 .def_944))
(define-fun .def_949 () Bool (and .def_945 .def_948))
(define-fun .def_952 () Bool (and .def_949 .def_951))
(define-fun .def_955 () Bool (and .def_952 .def_954))
(define-fun .def_958 () Bool (and .def_955 .def_957))
(define-fun .def_961 () Bool (and .def_958 .def_960))
(define-fun .def_1190 () Bool (and .def_961 .def_1189))
(assert .def_1190)
